49
1000
695	1
678	1
674	1
650	1
648	1
625	2
624	1
591	1
585	1
560	1
556	1
552	1
537	1
515	1
493	1
466	1
460	1
448	1
444	1
443	1
441	1
439	1
424	1
410	1
400	1
390	1
389	1
383	1
350	1
341	1
334	1
326	1
309	1
278	1
277	1
250	1
248	1
239	1
236	1
232	1
217	1
210	1
204	1
202	1
196	1
171	1
151	1
146	1
103	1
